inst=CIRC40
r=20
Compute TTP bound for CIRC40_20 with TimeLimit 21660
Save file as Instances/TTP/Bound_CIRC40_20.txt
Read TTP files
Instance: CIRC40, Type: A, Contributor: Easton, Nemhauser, Trick
Date: 0/0/2001
NrTeams = 40, NrRounds =  20
Set parameter TokenServer to value "licgurobi.ugent.be"
Set parameter Threads to value 8
Set parameter TimeLimit to value 21660
Gurobi Optimizer version 12.0.0 build v12.0.0rc1 (linux64 - "Red Hat Enterprise Linux 9.6 (Plow)")

CPU model: AMD EPYC 7552 48-Core Processor, instruction set [SSE2|AVX|AVX2]
Thread count: 96 physical cores, 96 logical processors, using up to 8 threads

Non-default parameters:
TimeLimit  21660
Threads  8

Optimize a model with 2500 rows, 1129480 columns and 3357280 nonzeros
Model fingerprint: 0x9f455d93
Variable types: 0 continuous, 1129480 integer (1129480 binary)
Coefficient statistics:
  Matrix range     [1e+00, 1e+00]
  Objective range  [2e+00, 8e+01]
  Bounds range     [1e+00, 1e+00]
  RHS range        [1e+00, 1e+01]
Found heuristic solution: objective 8156.0000000
Presolve removed 80 rows and 731160 columns
Presolve time: 3.57s
Presolved: 2420 rows, 398320 columns, 1163760 nonzeros
Variable types: 0 continuous, 398320 integer (398320 binary)
Deterministic concurrent LP optimizer: primal simplex, dual simplex, and barrier
Showing barrier log only...

Root barrier log...

Ordering time: 0.00s

Barrier statistics:
 AA' NZ     : 2.100e+02
 Factor NZ  : 2.310e+02 (roughly 1 MB of memory)
 Factor Ops : 3.311e+03 (less than 1 second per iteration)
 Threads    : 1

                  Objective                Residual
Iter       Primal          Dual         Primal    Dual     Compl     Time
   0   6.65387729e+05 -1.13408689e+04  2.09e+01 0.00e+00  2.12e+02     4s
   1   2.14741785e+04 -1.01461145e+03  5.57e-01 1.82e-12  6.91e+00     4s
   2   3.47491452e+03  9.63005311e+02  8.48e-05 1.82e-12  7.68e-01     4s

Barrier performed 2 iterations in 4.48 seconds (8.25 work units)
Barrier solve interrupted - model solved by another algorithm

Concurrent spin time: 0.04s

Solved with dual simplex

Use crossover to convert LP symmetric solution to basic solution...

Root relaxation: objective 1.760000e+03, 667 iterations, 0.60 seconds (0.58 work units)
Total elapsed time = 5.36s (DegenMoves)

    Nodes    |    Current Node    |     Objective Bounds      |     Work
 Expl Unexpl |  Obj  Depth IntInf | Incumbent    BestBd   Gap | It/Node Time

     0     0 1760.00000    0  226 8156.00000 1760.00000  78.4%     -    6s
H    0     0                    2072.0000000 1760.00000  15.1%     -    7s
H    0     0                    2070.0000000 1760.00000  15.0%     -    7s
H    0     0                    2068.0000000 1760.00000  14.9%     -    7s
H    0     0                    2066.0000000 1760.00000  14.8%     -    7s
H    0     0                    2024.0000000 1760.00000  13.0%     -   16s
H    0     0                    1952.0000000 1760.00000  9.84%     -   16s
H    0     0                    1840.0000000 1760.00000  4.35%     -   16s
H    0     0                    1792.0000000 1760.00000  1.79%     -   17s
H    0     0                    1788.0000000 1760.00000  1.57%     -   20s
     0     0 1760.00000    0  707 1788.00000 1760.00000  1.57%     -   26s
H    0     0                    1768.0000000 1760.00000  0.45%     -   35s
H    0     0                    1764.0000000 1760.00000  0.23%     -   35s
H    0     0                    1760.0000000 1760.00000  0.00%     -   40s
     0     0 1760.00000    0  707 1760.00000 1760.00000  0.00%     -   40s

Cutting planes:
  Clique: 39
  Zero half: 69

Explored 1 nodes (18687 simplex iterations) in 40.15 seconds (46.91 work units)
Thread count was 8 (of 96 available processors)

Solution count 10: 1760 1764 1768 ... 2068

Optimal solution found (tolerance 1.00e-04)
Best objective 1.760000000000e+03, best bound 1.760000000000e+03, gap 0.0000%

User-callback calls 8945, time in user-callback 0.00 sec
LB for instance CIRC40 with 20 = 1760, UB = 1760, gap = 0
